NAME : amz0450.80875_76375.tour
COMMENT : Cost = 80875_76375
COMMENT : Found by LKH-AMZ [Keld Helsgaun] Sun May 11 12:30:30 2025
COMMENT : TW viol.: 0 #: 0
TYPE : TOUR
DIMENSION : 128
TOUR_SECTION
119
2
100
43
8
110
87
5
125
56
42
34
23
74
105
64
54
111
57
81
45
22
107
24
15
36
44
73
117
51
39
78
101
10
70
7
103
26
69
30
122
89
77
82
92
83
109
128
84
13
52
123
86
31
14
41
40
59
37
48
68
25
46
27
75
80
50
126
60
71
95
38
47
63
72
98
12
28
102
85
79
16
115
65
32
124
114
62
11
58
99
29
21
120
118
112
4
116
6
9
49
121
66
88
94
17
1
127
35
61
3
55
53
106
113
96
76
93
18
108
97
19
20
67
91
90
104
33
-1
EOF
